; benchmark generated from python API
(set-info :status unknown)
(declare-fun makespan () Int)
(declare-fun y_0 () Int)
(declare-fun x_0 () Int)
(declare-fun y_1 () Int)
(declare-fun x_1 () Int)
(declare-fun y_2 () Int)
(declare-fun x_2 () Int)
(declare-fun ud_3_2 () Bool)
(declare-fun y_3 () Int)
(declare-fun x_3 () Int)
(declare-fun ud_4_2 () Bool)
(declare-fun y_4 () Int)
(declare-fun x_4 () Int)
(declare-fun ud_5_2 () Bool)
(declare-fun y_5 () Int)
(declare-fun x_5 () Int)
(declare-fun ud_6_2 () Bool)
(declare-fun y_6 () Int)
(declare-fun x_6 () Int)
(declare-fun y_7 () Int)
(declare-fun x_7 () Int)
(declare-fun lr_1_2 () Bool)
(declare-fun ud_1_2 () Bool)
(declare-fun lr_2_1 () Bool)
(declare-fun ud_2_1 () Bool)
(declare-fun lr_1_3 () Bool)
(declare-fun ud_1_3 () Bool)
(declare-fun lr_3_1 () Bool)
(declare-fun ud_3_1 () Bool)
(declare-fun lr_1_4 () Bool)
(declare-fun ud_1_4 () Bool)
(declare-fun lr_4_1 () Bool)
(declare-fun ud_4_1 () Bool)
(declare-fun lr_1_5 () Bool)
(declare-fun ud_1_5 () Bool)
(declare-fun lr_5_1 () Bool)
(declare-fun ud_5_1 () Bool)
(declare-fun lr_1_6 () Bool)
(declare-fun ud_1_6 () Bool)
(declare-fun lr_6_1 () Bool)
(declare-fun ud_6_1 () Bool)
(declare-fun lr_1_7 () Bool)
(declare-fun ud_1_7 () Bool)
(declare-fun lr_7_1 () Bool)
(declare-fun ud_7_1 () Bool)
(declare-fun lr_1_8 () Bool)
(declare-fun ud_1_8 () Bool)
(declare-fun lr_8_1 () Bool)
(declare-fun ud_8_1 () Bool)
(declare-fun lr_2_3 () Bool)
(declare-fun ud_2_3 () Bool)
(declare-fun lr_3_2 () Bool)
(declare-fun lr_2_4 () Bool)
(declare-fun ud_2_4 () Bool)
(declare-fun lr_4_2 () Bool)
(declare-fun lr_2_5 () Bool)
(declare-fun ud_2_5 () Bool)
(declare-fun lr_5_2 () Bool)
(declare-fun lr_2_6 () Bool)
(declare-fun ud_2_6 () Bool)
(declare-fun lr_6_2 () Bool)
(declare-fun lr_2_7 () Bool)
(declare-fun ud_2_7 () Bool)
(declare-fun lr_7_2 () Bool)
(declare-fun ud_7_2 () Bool)
(declare-fun lr_2_8 () Bool)
(declare-fun ud_2_8 () Bool)
(declare-fun lr_8_2 () Bool)
(declare-fun ud_8_2 () Bool)
(declare-fun lr_3_4 () Bool)
(declare-fun ud_3_4 () Bool)
(declare-fun lr_4_3 () Bool)
(declare-fun ud_4_3 () Bool)
(declare-fun lr_3_5 () Bool)
(declare-fun ud_3_5 () Bool)
(declare-fun lr_5_3 () Bool)
(declare-fun ud_5_3 () Bool)
(declare-fun lr_3_6 () Bool)
(declare-fun ud_3_6 () Bool)
(declare-fun lr_6_3 () Bool)
(declare-fun ud_6_3 () Bool)
(declare-fun lr_3_7 () Bool)
(declare-fun ud_3_7 () Bool)
(declare-fun lr_7_3 () Bool)
(declare-fun ud_7_3 () Bool)
(declare-fun lr_3_8 () Bool)
(declare-fun ud_3_8 () Bool)
(declare-fun lr_8_3 () Bool)
(declare-fun ud_8_3 () Bool)
(declare-fun lr_4_5 () Bool)
(declare-fun ud_4_5 () Bool)
(declare-fun lr_5_4 () Bool)
(declare-fun ud_5_4 () Bool)
(declare-fun lr_4_6 () Bool)
(declare-fun ud_4_6 () Bool)
(declare-fun lr_6_4 () Bool)
(declare-fun ud_6_4 () Bool)
(declare-fun lr_4_7 () Bool)
(declare-fun ud_4_7 () Bool)
(declare-fun lr_7_4 () Bool)
(declare-fun ud_7_4 () Bool)
(declare-fun lr_4_8 () Bool)
(declare-fun ud_4_8 () Bool)
(declare-fun lr_8_4 () Bool)
(declare-fun ud_8_4 () Bool)
(declare-fun lr_5_6 () Bool)
(declare-fun ud_5_6 () Bool)
(declare-fun lr_6_5 () Bool)
(declare-fun ud_6_5 () Bool)
(declare-fun lr_5_7 () Bool)
(declare-fun ud_5_7 () Bool)
(declare-fun lr_7_5 () Bool)
(declare-fun ud_7_5 () Bool)
(declare-fun lr_5_8 () Bool)
(declare-fun ud_5_8 () Bool)
(declare-fun lr_8_5 () Bool)
(declare-fun ud_8_5 () Bool)
(declare-fun lr_6_7 () Bool)
(declare-fun ud_6_7 () Bool)
(declare-fun lr_7_6 () Bool)
(declare-fun ud_7_6 () Bool)
(declare-fun lr_6_8 () Bool)
(declare-fun ud_6_8 () Bool)
(declare-fun lr_8_6 () Bool)
(declare-fun ud_8_6 () Bool)
(declare-fun lr_7_8 () Bool)
(declare-fun ud_7_8 () Bool)
(declare-fun lr_8_7 () Bool)
(declare-fun ud_8_7 () Bool)
(assert
 (>= makespan 12))
(assert
 (<= makespan 18))
(assert
 (let ((?x83325 (+ y_0 3)))
 (<= ?x83325 makespan)))
(assert
 (let ((?x13438 (+ x_0 6)))
 (<= ?x13438 12)))
(assert
 (>= x_0 0))
(assert
 (<= y_0 15))
(assert
 (>= y_0 0))
(assert
 (<= x_0 3))
(assert
 (let ((?x83311 (+ y_1 9)))
 (<= ?x83311 makespan)))
(assert
 (let ((?x83307 (+ x_1 3)))
 (<= ?x83307 12)))
(assert
 (>= x_1 0))
(assert
 (<= y_1 9))
(assert
 (>= y_1 0))
(assert
 (<= y_1 4))
(assert
 (let ((?x83294 (+ y_2 8)))
 (<= ?x83294 makespan)))
(assert
 (let ((?x9297 (+ x_2 3)))
 (<= ?x9297 12)))
(assert
 (>= x_2 0))
(assert
 (<= y_2 10))
(assert
 (>= y_2 0))
(assert
 (= ud_3_2 false))
(assert
 (let ((?x83276 (+ y_3 7)))
 (<= ?x83276 makespan)))
(assert
 (let ((?x83271 (+ x_3 3)))
 (<= ?x83271 12)))
(assert
 (>= x_3 0))
(assert
 (<= y_3 11))
(assert
 (>= y_3 0))
(assert
 (= ud_4_2 false))
(assert
 (let ((?x4907 (+ y_4 6)))
 (<= ?x4907 makespan)))
(assert
 (let ((?x6015 (+ x_4 3)))
 (<= ?x6015 12)))
(assert
 (>= x_4 0))
(assert
 (<= y_4 12))
(assert
 (>= y_4 0))
(assert
 (= ud_5_2 false))
(assert
 (let ((?x83240 (+ y_5 5)))
 (<= ?x83240 makespan)))
(assert
 (let ((?x83235 (+ x_5 3)))
 (<= ?x83235 12)))
(assert
 (>= x_5 0))
(assert
 (<= y_5 13))
(assert
 (>= y_5 0))
(assert
 (= ud_6_2 false))
(assert
 (let ((?x83223 (+ y_6 4)))
 (<= ?x83223 makespan)))
(assert
 (let ((?x83218 (+ x_6 3)))
 (<= ?x83218 12)))
(assert
 (>= x_6 0))
(assert
 (<= y_6 14))
(assert
 (>= y_6 0))
(assert
 (let ((?x83204 (+ y_7 3)))
 (<= ?x83204 makespan)))
(assert
 (let ((?x2064 (+ x_7 3)))
 (<= ?x2064 12)))
(assert
 (>= x_7 0))
(assert
 (<= y_7 15))
(assert
 (>= y_7 0))
(assert
 (= (<= (+ x_0 6) x_1) lr_1_2))
(assert
 (= (<= (+ y_0 3) y_1) ud_1_2))
(assert
 (= (<= (+ x_1 3) x_0) lr_2_1))
(assert
 (= (<= (+ y_1 9) y_0) ud_2_1))
(assert
 (or lr_1_2 lr_2_1 ud_1_2 ud_2_1))
(assert
 (let (($x83154 (< makespan 12)))
 (=> $x83154 (= ud_1_2 false))))
(assert
 (let (($x83154 (< makespan 12)))
 (=> $x83154 (= ud_2_1 false))))
(assert
 (= (<= (+ x_0 6) x_2) lr_1_3))
(assert
 (= (<= (+ y_0 3) y_2) ud_1_3))
(assert
 (= (<= (+ x_2 3) x_0) lr_3_1))
(assert
 (= (<= (+ y_2 8) y_0) ud_3_1))
(assert
 (or lr_1_3 lr_3_1 ud_1_3 ud_3_1))
(assert
 (let (($x11481 (< makespan 11)))
 (=> $x11481 (= ud_1_3 false))))
(assert
 (let (($x11481 (< makespan 11)))
 (=> $x11481 (= ud_3_1 false))))
(assert
 (= (<= (+ x_0 6) x_3) lr_1_4))
(assert
 (= (<= (+ y_0 3) y_3) ud_1_4))
(assert
 (= (<= (+ x_3 3) x_0) lr_4_1))
(assert
 (= (<= (+ y_3 7) y_0) ud_4_1))
(assert
 (or lr_1_4 lr_4_1 ud_1_4 ud_4_1))
(assert
 (let (($x83050 (< makespan 10)))
 (=> $x83050 (= ud_1_4 false))))
(assert
 (let (($x83050 (< makespan 10)))
 (=> $x83050 (= ud_4_1 false))))
(assert
 (= (<= (+ x_0 6) x_4) lr_1_5))
(assert
 (= (<= (+ y_0 3) y_4) ud_1_5))
(assert
 (= (<= (+ x_4 3) x_0) lr_5_1))
(assert
 (= (<= (+ y_4 6) y_0) ud_5_1))
(assert
 (or lr_1_5 lr_5_1 ud_1_5 ud_5_1))
(assert
 (let (($x83001 (< makespan 9)))
 (=> $x83001 (= ud_1_5 false))))
(assert
 (let (($x83001 (< makespan 9)))
 (=> $x83001 (= ud_5_1 false))))
(assert
 (= (<= (+ x_0 6) x_5) lr_1_6))
(assert
 (= (<= (+ y_0 3) y_5) ud_1_6))
(assert
 (= (<= (+ x_5 3) x_0) lr_6_1))
(assert
 (= (<= (+ y_5 5) y_0) ud_6_1))
(assert
 (or lr_1_6 lr_6_1 ud_1_6 ud_6_1))
(assert
 (let (($x82953 (< makespan 8)))
 (=> $x82953 (= ud_1_6 false))))
(assert
 (let (($x82953 (< makespan 8)))
 (=> $x82953 (= ud_6_1 false))))
(assert
 (= (<= (+ x_0 6) x_6) lr_1_7))
(assert
 (= (<= (+ y_0 3) y_6) ud_1_7))
(assert
 (= (<= (+ x_6 3) x_0) lr_7_1))
(assert
 (= (<= (+ y_6 4) y_0) ud_7_1))
(assert
 (or lr_1_7 lr_7_1 ud_1_7 ud_7_1))
(assert
 (let (($x82906 (< makespan 7)))
 (=> $x82906 (= ud_1_7 false))))
(assert
 (let (($x82906 (< makespan 7)))
 (=> $x82906 (= ud_7_1 false))))
(assert
 (= (<= (+ x_0 6) x_7) lr_1_8))
(assert
 (= (<= (+ y_0 3) y_7) ud_1_8))
(assert
 (= (<= (+ x_7 3) x_0) lr_8_1))
(assert
 (= (<= (+ y_7 3) y_0) ud_8_1))
(assert
 (or lr_1_8 lr_8_1 ud_1_8 ud_8_1))
(assert
 (let (($x82848 (< makespan 6)))
 (=> $x82848 (= ud_1_8 false))))
(assert
 (let (($x82848 (< makespan 6)))
 (=> $x82848 (= ud_8_1 false))))
(assert
 (= (<= (+ x_1 3) x_2) lr_2_3))
(assert
 (= (<= (+ y_1 9) y_2) ud_2_3))
(assert
 (= (<= (+ x_2 3) x_1) lr_3_2))
(assert
 (= (<= (+ y_2 8) y_1) ud_3_2))
(assert
 (or lr_2_3 lr_3_2 ud_2_3 ud_3_2))
(assert
 (let (($x82798 (< makespan 17)))
 (=> $x82798 (= ud_2_3 false))))
(assert
 (let (($x83280 (= ud_3_2 false)))
 (let (($x82798 (< makespan 17)))
 (=> $x82798 $x83280))))
(assert
 (= (<= (+ x_1 3) x_3) lr_2_4))
(assert
 (= (<= (+ y_1 9) y_3) ud_2_4))
(assert
 (= (<= (+ x_3 3) x_1) lr_4_2))
(assert
 (= (<= (+ y_3 7) y_1) ud_4_2))
(assert
 (or lr_2_4 lr_4_2 ud_2_4 ud_4_2))
(assert
 (let (($x25825 (< makespan 16)))
 (=> $x25825 (= ud_2_4 false))))
(assert
 (let (($x83259 (= ud_4_2 false)))
 (let (($x25825 (< makespan 16)))
 (=> $x25825 $x83259))))
(assert
 (= (<= (+ x_1 3) x_4) lr_2_5))
(assert
 (= (<= (+ y_1 9) y_4) ud_2_5))
(assert
 (= (<= (+ x_4 3) x_1) lr_5_2))
(assert
 (= (<= (+ y_4 6) y_1) ud_5_2))
(assert
 (or lr_2_5 lr_5_2 ud_2_5 ud_5_2))
(assert
 (let (($x82710 (< makespan 15)))
 (=> $x82710 (= ud_2_5 false))))
(assert
 (let (($x5764 (= ud_5_2 false)))
 (let (($x82710 (< makespan 15)))
 (=> $x82710 $x5764))))
(assert
 (= (<= (+ x_1 3) x_5) lr_2_6))
(assert
 (= (<= (+ y_1 9) y_5) ud_2_6))
(assert
 (= (<= (+ x_5 3) x_1) lr_6_2))
(assert
 (= (<= (+ y_5 5) y_1) ud_6_2))
(assert
 (or lr_2_6 lr_6_2 ud_2_6 ud_6_2))
(assert
 (let (($x82663 (< makespan 14)))
 (=> $x82663 (= ud_2_6 false))))
(assert
 (let (($x83227 (= ud_6_2 false)))
 (let (($x82663 (< makespan 14)))
 (=> $x82663 $x83227))))
(assert
 (= (<= (+ x_1 3) x_6) lr_2_7))
(assert
 (= (<= (+ y_1 9) y_6) ud_2_7))
(assert
 (= (<= (+ x_6 3) x_1) lr_7_2))
(assert
 (= (<= (+ y_6 4) y_1) ud_7_2))
(assert
 (or lr_2_7 lr_7_2 ud_2_7 ud_7_2))
(assert
 (let (($x4605 (< makespan 13)))
 (=> $x4605 (= ud_2_7 false))))
(assert
 (let (($x4605 (< makespan 13)))
 (=> $x4605 (= ud_7_2 false))))
(assert
 (= (<= (+ x_1 3) x_7) lr_2_8))
(assert
 (= (<= (+ y_1 9) y_7) ud_2_8))
(assert
 (= (<= (+ x_7 3) x_1) lr_8_2))
(assert
 (= (<= (+ y_7 3) y_1) ud_8_2))
(assert
 (or lr_2_8 lr_8_2 ud_2_8 ud_8_2))
(assert
 (let (($x83154 (< makespan 12)))
 (=> $x83154 (= ud_2_8 false))))
(assert
 (let (($x83154 (< makespan 12)))
 (=> $x83154 (= ud_8_2 false))))
(assert
 (= (<= (+ x_2 3) x_3) lr_3_4))
(assert
 (= (<= (+ y_2 8) y_3) ud_3_4))
(assert
 (= (<= (+ x_3 3) x_2) lr_4_3))
(assert
 (= (<= (+ y_3 7) y_2) ud_4_3))
(assert
 (or lr_3_4 lr_4_3 ud_3_4 ud_4_3))
(assert
 (let (($x82710 (< makespan 15)))
 (=> $x82710 (= ud_3_4 false))))
(assert
 (let (($x82710 (< makespan 15)))
 (=> $x82710 (= ud_4_3 false))))
(assert
 (= (<= (+ x_2 3) x_4) lr_3_5))
(assert
 (= (<= (+ y_2 8) y_4) ud_3_5))
(assert
 (= (<= (+ x_4 3) x_2) lr_5_3))
(assert
 (= (<= (+ y_4 6) y_2) ud_5_3))
(assert
 (or lr_3_5 lr_5_3 ud_3_5 ud_5_3))
(assert
 (let (($x82663 (< makespan 14)))
 (=> $x82663 (= ud_3_5 false))))
(assert
 (let (($x82663 (< makespan 14)))
 (=> $x82663 (= ud_5_3 false))))
(assert
 (= (<= (+ x_2 3) x_5) lr_3_6))
(assert
 (= (<= (+ y_2 8) y_5) ud_3_6))
(assert
 (= (<= (+ x_5 3) x_2) lr_6_3))
(assert
 (= (<= (+ y_5 5) y_2) ud_6_3))
(assert
 (or lr_3_6 lr_6_3 ud_3_6 ud_6_3))
(assert
 (let (($x4605 (< makespan 13)))
 (=> $x4605 (= ud_3_6 false))))
(assert
 (let (($x4605 (< makespan 13)))
 (=> $x4605 (= ud_6_3 false))))
(assert
 (= (<= (+ x_2 3) x_6) lr_3_7))
(assert
 (= (<= (+ y_2 8) y_6) ud_3_7))
(assert
 (= (<= (+ x_6 3) x_2) lr_7_3))
(assert
 (= (<= (+ y_6 4) y_2) ud_7_3))
(assert
 (or lr_3_7 lr_7_3 ud_3_7 ud_7_3))
(assert
 (let (($x83154 (< makespan 12)))
 (=> $x83154 (= ud_3_7 false))))
(assert
 (let (($x83154 (< makespan 12)))
 (=> $x83154 (= ud_7_3 false))))
(assert
 (= (<= (+ x_2 3) x_7) lr_3_8))
(assert
 (= (<= (+ y_2 8) y_7) ud_3_8))
(assert
 (= (<= (+ x_7 3) x_2) lr_8_3))
(assert
 (= (<= (+ y_7 3) y_2) ud_8_3))
(assert
 (or lr_3_8 lr_8_3 ud_3_8 ud_8_3))
(assert
 (let (($x11481 (< makespan 11)))
 (=> $x11481 (= ud_3_8 false))))
(assert
 (let (($x11481 (< makespan 11)))
 (=> $x11481 (= ud_8_3 false))))
(assert
 (= (<= (+ x_3 3) x_4) lr_4_5))
(assert
 (= (<= (+ y_3 7) y_4) ud_4_5))
(assert
 (= (<= (+ x_4 3) x_3) lr_5_4))
(assert
 (= (<= (+ y_4 6) y_3) ud_5_4))
(assert
 (or lr_4_5 lr_5_4 ud_4_5 ud_5_4))
(assert
 (let (($x4605 (< makespan 13)))
 (=> $x4605 (= ud_4_5 false))))
(assert
 (let (($x4605 (< makespan 13)))
 (=> $x4605 (= ud_5_4 false))))
(assert
 (= (<= (+ x_3 3) x_5) lr_4_6))
(assert
 (= (<= (+ y_3 7) y_5) ud_4_6))
(assert
 (= (<= (+ x_5 3) x_3) lr_6_4))
(assert
 (= (<= (+ y_5 5) y_3) ud_6_4))
(assert
 (or lr_4_6 lr_6_4 ud_4_6 ud_6_4))
(assert
 (let (($x83154 (< makespan 12)))
 (=> $x83154 (= ud_4_6 false))))
(assert
 (let (($x83154 (< makespan 12)))
 (=> $x83154 (= ud_6_4 false))))
(assert
 (= (<= (+ x_3 3) x_6) lr_4_7))
(assert
 (= (<= (+ y_3 7) y_6) ud_4_7))
(assert
 (= (<= (+ x_6 3) x_3) lr_7_4))
(assert
 (= (<= (+ y_6 4) y_3) ud_7_4))
(assert
 (or lr_4_7 lr_7_4 ud_4_7 ud_7_4))
(assert
 (let (($x11481 (< makespan 11)))
 (=> $x11481 (= ud_4_7 false))))
(assert
 (let (($x11481 (< makespan 11)))
 (=> $x11481 (= ud_7_4 false))))
(assert
 (= (<= (+ x_3 3) x_7) lr_4_8))
(assert
 (= (<= (+ y_3 7) y_7) ud_4_8))
(assert
 (= (<= (+ x_7 3) x_3) lr_8_4))
(assert
 (= (<= (+ y_7 3) y_3) ud_8_4))
(assert
 (or lr_4_8 lr_8_4 ud_4_8 ud_8_4))
(assert
 (let (($x83050 (< makespan 10)))
 (=> $x83050 (= ud_4_8 false))))
(assert
 (let (($x83050 (< makespan 10)))
 (=> $x83050 (= ud_8_4 false))))
(assert
 (= (<= (+ x_4 3) x_5) lr_5_6))
(assert
 (= (<= (+ y_4 6) y_5) ud_5_6))
(assert
 (= (<= (+ x_5 3) x_4) lr_6_5))
(assert
 (= (<= (+ y_5 5) y_4) ud_6_5))
(assert
 (or lr_5_6 lr_6_5 ud_5_6 ud_6_5))
(assert
 (let (($x11481 (< makespan 11)))
 (=> $x11481 (= ud_5_6 false))))
(assert
 (let (($x11481 (< makespan 11)))
 (=> $x11481 (= ud_6_5 false))))
(assert
 (= (<= (+ x_4 3) x_6) lr_5_7))
(assert
 (= (<= (+ y_4 6) y_6) ud_5_7))
(assert
 (= (<= (+ x_6 3) x_4) lr_7_5))
(assert
 (= (<= (+ y_6 4) y_4) ud_7_5))
(assert
 (or lr_5_7 lr_7_5 ud_5_7 ud_7_5))
(assert
 (let (($x83050 (< makespan 10)))
 (=> $x83050 (= ud_5_7 false))))
(assert
 (let (($x83050 (< makespan 10)))
 (=> $x83050 (= ud_7_5 false))))
(assert
 (= (<= (+ x_4 3) x_7) lr_5_8))
(assert
 (= (<= (+ y_4 6) y_7) ud_5_8))
(assert
 (= (<= (+ x_7 3) x_4) lr_8_5))
(assert
 (= (<= (+ y_7 3) y_4) ud_8_5))
(assert
 (or lr_5_8 lr_8_5 ud_5_8 ud_8_5))
(assert
 (let (($x83001 (< makespan 9)))
 (=> $x83001 (= ud_5_8 false))))
(assert
 (let (($x83001 (< makespan 9)))
 (=> $x83001 (= ud_8_5 false))))
(assert
 (= (<= (+ x_5 3) x_6) lr_6_7))
(assert
 (= (<= (+ y_5 5) y_6) ud_6_7))
(assert
 (= (<= (+ x_6 3) x_5) lr_7_6))
(assert
 (= (<= (+ y_6 4) y_5) ud_7_6))
(assert
 (or lr_6_7 lr_7_6 ud_6_7 ud_7_6))
(assert
 (let (($x83001 (< makespan 9)))
 (=> $x83001 (= ud_6_7 false))))
(assert
 (let (($x83001 (< makespan 9)))
 (=> $x83001 (= ud_7_6 false))))
(assert
 (= (<= (+ x_5 3) x_7) lr_6_8))
(assert
 (= (<= (+ y_5 5) y_7) ud_6_8))
(assert
 (= (<= (+ x_7 3) x_5) lr_8_6))
(assert
 (= (<= (+ y_7 3) y_5) ud_8_6))
(assert
 (or lr_6_8 lr_8_6 ud_6_8 ud_8_6))
(assert
 (let (($x82953 (< makespan 8)))
 (=> $x82953 (= ud_6_8 false))))
(assert
 (let (($x82953 (< makespan 8)))
 (=> $x82953 (= ud_8_6 false))))
(assert
 (= (<= (+ x_6 3) x_7) lr_7_8))
(assert
 (= (<= (+ y_6 4) y_7) ud_7_8))
(assert
 (= (<= (+ x_7 3) x_6) lr_8_7))
(assert
 (= (<= (+ y_7 3) y_6) ud_8_7))
(assert
 (or lr_7_8 lr_8_7 ud_7_8 ud_8_7))
(assert
 (let (($x82906 (< makespan 7)))
 (=> $x82906 (= ud_7_8 false))))
(assert
 (let (($x82906 (< makespan 7)))
 (=> $x82906 (= ud_8_7 false))))
(check-sat)
